%Chk = host_guest.chk
%Mem = 50GB
%NProcShared = 12
# B3LYP 6-31G   Integral=(Grid=UltraFine) Pop(MK,ReadRadii) IOp(6/33=2,6/42=6)
 
Gaussian Input File
 
1 1
C 0 25.897 35.473 23.918
C 0 25.552 36.803 23.714
C 0 25.205 37.274 22.371
C 0 25.008 36.365 21.336
C 0 25.342 35.033 21.579
C 0 25.814 34.590 22.831
C 0 26.396 34.832 25.173
N 0 26.560 35.606 26.275
N 0 26.901 33.514 25.213
H 0 25.622 37.545 24.504
H 0 24.881 38.306 22.272
H 0 24.645 36.652 20.354
H 0 25.356 34.425 20.679
H 0 26.099 33.544 22.897
H 0 27.166 35.296 27.024
H 0 26.540 36.555 25.925
H 0 27.776 33.309 25.679
H 0 26.647 32.877 24.468
N 0 30.112 28.080 27.542
H 0 29.523 27.423 28.032
C 0 29.462 29.307 27.051
H 0 29.271 29.095 25.999
C 0 28.022 29.456 27.625
H 0 28.034 29.412 28.715
C 0 27.466 30.845 27.115
H 0 28.051 31.717 27.406
H 0 27.311 30.857 26.036
H 0 26.481 31.039 27.540
C 0 27.082 28.377 27.181
H 0 26.854 28.326 26.117
H 0 27.591 27.462 27.483
H 0 26.135 28.306 27.716
C 0 30.285 30.577 27.286
O 0 30.477 30.979 28.434
N 0 30.740 31.210 26.181
H 0 30.598 30.804 25.267
C 0 31.581 32.434 26.266
H 0 31.689 32.768 27.298
C 0 32.887 32.014 25.673
H 0 33.227 31.104 26.168
H 0 32.620 31.813 24.636
O 0 33.847 33.012 25.757
H 0 34.198 33.004 26.651
C 0 30.913 33.628 25.648
O 0 29.672 33.766 25.708
 