memory 50 GB
molecule {
1 1
C 0.18 0.0 -0.0
C -0.526 -1.197 -0.246
C -1.92 -1.19 -0.247
C -2.618 -0.0 0.0
C -1.92 1.19 0.247
C -0.526 1.197 0.245
C 1.647 -0.0 -0.0
N 2.316 -1.063 0.456
N 2.317 1.063 -0.456
H 0.005 -2.112 -0.484
H -2.462 -2.106 -0.452
H -3.702 -0.0 0.0
H -2.462 2.105 0.452
H 0.005 2.112 0.483
H 3.321 -1.154 0.38
H 1.824 -1.809 0.925
H 3.321 1.154 -0.379
H 1.824 1.809 -0.925
}
set {
basis STO-3G
}
gradient('BLYP')
